p tw 184 382
0 1
0 41
0 43
0 149
1 37
1 38
1 41
1 42
1 43
1 108
1 98
1 19
1 35
1 101
2 3
2 4
2 48
2 153
3 4
3 95
3 174
4 172
5 6
5 47
5 48
6 75
6 177
7 8
7 9
7 104
7 105
8 9
8 75
8 76
8 117
8 119
8 142
8 173
8 180
8 176
8 149
8 70
8 165
9 36
9 62
9 63
9 68
9 97
9 106
9 152
9 109
9 178
10 11
10 12
10 23
10 161
11 12
11 23
11 81
11 88
11 121
12 23
12 178
13 14
13 15
13 46
14 15
14 66
15 16
15 17
15 163
15 164
15 156
15 167
15 92
16 17
16 134
17 131
18 19
18 20
19 20
19 157
19 35
20 41
21 22
21 47
21 166
22 76
23 161
23 54
24 25
24 26
24 61
24 77
25 26
25 64
25 59
25 159
26 58
26 60
27 28
27 29
27 64
27 126
28 29
28 33
28 64
28 65
28 66
28 44
28 121
28 171
29 33
29 64
29 65
29 152
29 171
30 31
30 32
30 145
30 146
31 32
31 130
32 67
32 68
33 125
33 126
34 35
34 43
36 84
37 38
37 102
37 108
38 108
38 79
38 99
39 40
39 52
39 53
39 54
39 82
39 96
39 121
39 139
39 86
40 164
41 42
41 43
41 94
41 114
41 157
41 149
41 113
41 100
41 183
42 43
42 79
42 95
42 67
43 80
43 93
43 90
43 149
43 99
44 45
44 46
44 121
45 46
45 120
45 144
47 48
47 166
48 55
48 115
48 85
48 122
48 95
48 153
49 50
49 51
49 121
50 51
50 118
51 88
51 89
52 53
52 54
52 168
52 179
53 54
53 82
53 96
53 97
53 86
54 86
54 87
54 96
55 56
55 57
55 115
56 57
56 95
56 173
57 169
58 59
58 60
58 61
58 103
58 131
58 121
58 135
58 77
59 60
59 61
59 159
60 61
60 103
60 63
60 77
61 77
61 103
61 179
62 63
62 151
62 67
62 133
64 65
64 126
64 171
65 125
65 162
67 68
67 78
67 109
67 110
67 111
67 74
67 106
67 133
67 129
67 146
68 97
68 130
69 70
69 71
69 115
70 71
70 165
71 142
71 143
72 73
72 74
72 107
73 74
73 111
73 116
74 106
75 76
75 177
76 83
76 95
78 150
78 155
79 80
79 95
79 99
79 149
80 93
81 156
82 87
82 179
83 84
83 85
83 95
84 85
85 122
86 87
87 179
88 89
88 121
89 167
90 91
90 92
91 92
91 93
92 101
92 102
92 94
92 112
94 112
95 121
95 165
95 166
95 173
95 174
96 118
96 168
98 99
98 100
99 100
100 183
101 102
102 108
103 137
103 159
104 105
104 122
105 117
105 160
106 107
106 152
109 110
109 124
109 178
110 123
110 150
111 116
112 113
112 114
113 114
113 157
114 157
117 160
118 168
119 140
119 141
120 121
120 144
121 139
121 135
121 182
121 148
123 124
123 150
125 126
125 162
125 144
127 128
127 129
128 129
128 132
128 133
132 133
132 151
134 135
134 136
135 136
136 181
136 182
137 138
137 159
138 147
138 148
139 147
139 158
140 141
141 154
141 180
142 143
145 146
147 148
147 158
150 155
153 154
154 180
156 167
158 163
161 174
162 170
162 171
163 164
165 166
165 169
168 179
170 171
170 181
172 173
173 180
175 176
175 177
176 177
181 182
